c CNF file corresponding to a (partial) station packing problem.
p cnf 730 229
1 2 3 4 5 6 7 8 9 10 11 12 13 14 0
-1 -2 0
-1 -3 0
-1 -4 0
-1 -5 0
-1 -6 0
-1 -7 0
-1 -8 0
-1 -9 0
-1 -10 0
-1 -11 0
-1 -12 0
-1 -13 0
-1 -14 0
-2 -3 0
-2 -4 0
-2 -5 0
-2 -6 0
-2 -7 0
-2 -8 0
-2 -9 0
-2 -10 0
-2 -11 0
-2 -12 0
-2 -13 0
-2 -14 0
-3 -4 0
-3 -5 0
-3 -6 0
-3 -7 0
-3 -8 0
-3 -9 0
-3 -10 0
-3 -11 0
-3 -12 0
-3 -13 0
-3 -14 0
-4 -5 0
-4 -6 0
-4 -7 0
-4 -8 0
-4 -9 0
-4 -10 0
-4 -11 0
-4 -12 0
-4 -13 0
-4 -14 0
-5 -6 0
-5 -7 0
-5 -8 0
-5 -9 0
-5 -10 0
-5 -11 0
-5 -12 0
-5 -13 0
-5 -14 0
-6 -7 0
-6 -8 0
-6 -9 0
-6 -10 0
-6 -11 0
-6 -12 0
-6 -13 0
-6 -14 0
-7 -8 0
-7 -9 0
-7 -10 0
-7 -11 0
-7 -12 0
-7 -13 0
-7 -14 0
-8 -9 0
-8 -10 0
-8 -11 0
-8 -12 0
-8 -13 0
-8 -14 0
-9 -10 0
-9 -11 0
-9 -12 0
-9 -13 0
-9 -14 0
-10 -11 0
-10 -12 0
-10 -13 0
-10 -14 0
-11 -12 0
-11 -13 0
-11 -14 0
-12 -13 0
-12 -14 0
-13 -14 0
714 715 716 717 718 719 720 721 722 723 724 725 726 727 728 729 730 0
-714 -715 0
-714 -716 0
-714 -717 0
-714 -718 0
-714 -719 0
-714 -720 0
-714 -721 0
-714 -722 0
-714 -723 0
-714 -724 0
-714 -725 0
-714 -726 0
-714 -727 0
-714 -728 0
-714 -729 0
-714 -730 0
-715 -716 0
-715 -717 0
-715 -718 0
-715 -719 0
-715 -720 0
-715 -721 0
-715 -722 0
-715 -723 0
-715 -724 0
-715 -725 0
-715 -726 0
-715 -727 0
-715 -728 0
-715 -729 0
-715 -730 0
-716 -717 0
-716 -718 0
-716 -719 0
-716 -720 0
-716 -721 0
-716 -722 0
-716 -723 0
-716 -724 0
-716 -725 0
-716 -726 0
-716 -727 0
-716 -728 0
-716 -729 0
-716 -730 0
-717 -718 0
-717 -719 0
-717 -720 0
-717 -721 0
-717 -722 0
-717 -723 0
-717 -724 0
-717 -725 0
-717 -726 0
-717 -727 0
-717 -728 0
-717 -729 0
-717 -730 0
-718 -719 0
-718 -720 0
-718 -721 0
-718 -722 0
-718 -723 0
-718 -724 0
-718 -725 0
-718 -726 0
-718 -727 0
-718 -728 0
-718 -729 0
-718 -730 0
-719 -720 0
-719 -721 0
-719 -722 0
-719 -723 0
-719 -724 0
-719 -725 0
-719 -726 0
-719 -727 0
-719 -728 0
-719 -729 0
-719 -730 0
-720 -721 0
-720 -722 0
-720 -723 0
-720 -724 0
-720 -725 0
-720 -726 0
-720 -727 0
-720 -728 0
-720 -729 0
-720 -730 0
-721 -722 0
-721 -723 0
-721 -724 0
-721 -725 0
-721 -726 0
-721 -727 0
-721 -728 0
-721 -729 0
-721 -730 0
-722 -723 0
-722 -724 0
-722 -725 0
-722 -726 0
-722 -727 0
-722 -728 0
-722 -729 0
-722 -730 0
-723 -724 0
-723 -725 0
-723 -726 0
-723 -727 0
-723 -728 0
-723 -729 0
-723 -730 0
-724 -725 0
-724 -726 0
-724 -727 0
-724 -728 0
-724 -729 0
-724 -730 0
-725 -726 0
-725 -727 0
-725 -728 0
-725 -729 0
-725 -730 0
-726 -727 0
-726 -728 0
-726 -729 0
-726 -730 0
-727 -728 0
-727 -729 0
-727 -730 0
-728 -729 0
-728 -730 0
-729 -730 0
